c " random instance " 
p edges 200 2134
e 1 7
e 1 42
e 1 45
e 1 48
e 1 65
e 1 72
e 1 79
e 1 86
e 1 96
e 1 111
e 1 125
e 1 137
e 1 154
e 1 161
e 1 169
e 1 172
e 1 185
e 1 186
e 1 191
e 2 4
e 2 6
e 2 8
e 2 20
e 2 28
e 2 36
e 2 38
e 2 43
e 2 46
e 2 48
e 2 68
e 2 79
e 2 88
e 2 90
e 2 93
e 2 95
e 2 105
e 2 120
e 2 126
e 2 158
e 2 159
e 2 167
e 2 170
e 2 173
e 2 186
e 2 191
e 2 198
e 2 199
e 3 4
e 3 16
e 3 29
e 3 40
e 3 48
e 3 51
e 3 64
e 3 68
e 3 72
e 3 76
e 3 78
e 3 81
e 3 91
e 3 94
e 3 134
e 3 139
e 3 159
e 3 160
e 3 166
e 3 178
e 3 181
e 3 187
e 3 190
e 4 12
e 4 24
e 4 39
e 4 40
e 4 42
e 4 43
e 4 56
e 4 71
e 4 85
e 4 90
e 4 94
e 4 117
e 4 122
e 4 129
e 4 134
e 4 143
e 4 152
e 4 172
e 4 180
e 4 196
e 5 28
e 5 35
e 5 57
e 5 59
e 5 82
e 5 83
e 5 84
e 5 87
e 5 91
e 5 107
e 5 115
e 5 116
e 5 117
e 5 125
e 5 126
e 5 131
e 5 137
e 5 141
e 5 156
e 5 179
e 5 182
e 5 183
e 5 186
e 5 199
e 6 17
e 6 32
e 6 42
e 6 47
e 6 49
e 6 64
e 6 69
e 6 71
e 6 73
e 6 77
e 6 79
e 6 89
e 6 136
e 6 139
e 6 155
e 6 180
e 6 182
e 6 190
e 7 12
e 7 16
e 7 43
e 7 53
e 7 54
e 7 68
e 7 69
e 7 76
e 7 99
e 7 107
e 7 131
e 7 133
e 7 137
e 7 150
e 7 155
e 7 164
e 7 165
e 7 168
e 7 169
e 7 172
e 7 174
e 7 178
e 7 186
e 7 187
e 7 189
e 7 199
e 8 20
e 8 54
e 8 65
e 8 69
e 8 87
e 8 119
e 8 132
e 8 142
e 8 144
e 8 151
e 8 165
e 8 178
e 8 197
e 9 40
e 9 47
e 9 50
e 9 61
e 9 64
e 9 69
e 9 77
e 9 79
e 9 82
e 9 90
e 9 97
e 9 98
e 9 105
e 9 119
e 9 124
e 9 126
e 9 133
e 9 138
e 9 140
e 9 148
e 9 152
e 9 161
e 9 164
e 9 173
e 9 178
e 9 192
e 9 200
e 10 12
e 10 15
e 10 26
e 10 45
e 10 55
e 10 82
e 10 97
e 10 106
e 10 119
e 10 122
e 10 123
e 10 127
e 10 133
e 10 149
e 10 150
e 10 165
e 10 168
e 10 183
e 10 196
e 11 12
e 11 20
e 11 57
e 11 76
e 11 88
e 11 106
e 11 125
e 11 136
e 11 145
e 11 183
e 11 194
e 12 25
e 12 27
e 12 31
e 12 37
e 12 65
e 12 73
e 12 77
e 12 86
e 12 96
e 12 118
e 12 121
e 12 122
e 12 135
e 12 174
e 13 21
e 13 26
e 13 39
e 13 54
e 13 64
e 13 81
e 13 92
e 13 105
e 13 109
e 13 110
e 13 134
e 13 135
e 13 151
e 13 167
e 13 168
e 13 178
e 13 184
e 13 188
e 13 198
e 14 36
e 14 40
e 14 45
e 14 53
e 14 54
e 14 68
e 14 83
e 14 99
e 14 103
e 14 104
e 14 107
e 14 117
e 14 143
e 14 149
e 14 152
e 14 163
e 14 188
e 15 16
e 15 38
e 15 42
e 15 43
e 15 44
e 15 49
e 15 57
e 15 58
e 15 76
e 15 86
e 15 87
e 15 112
e 15 119
e 15 125
e 15 144
e 15 153
e 15 162
e 15 163
e 15 165
e 15 178
e 15 184
e 15 193
e 15 194
e 15 198
e 16 18
e 16 23
e 16 28
e 16 54
e 16 56
e 16 67
e 16 73
e 16 78
e 16 80
e 16 84
e 16 85
e 16 86
e 16 94
e 16 100
e 16 106
e 16 112
e 16 145
e 16 146
e 16 154
e 16 177
e 16 179
e 16 192
e 16 195
e 17 21
e 17 43
e 17 54
e 17 58
e 17 63
e 17 69
e 17 71
e 17 77
e 17 93
e 17 117
e 17 128
e 17 138
e 17 173
e 17 184
e 17 185
e 17 187
e 17 194
e 18 24
e 18 39
e 18 78
e 18 97
e 18 98
e 18 104
e 18 109
e 18 110
e 18 112
e 18 118
e 18 137
e 18 153
e 18 173
e 18 175
e 18 182
e 19 33
e 19 35
e 19 42
e 19 47
e 19 52
e 19 65
e 19 85
e 19 91
e 19 137
e 19 142
e 19 152
e 19 161
e 19 171
e 19 174
e 19 177
e 19 180
e 19 186
e 19 187
e 20 25
e 20 32
e 20 39
e 20 49
e 20 62
e 20 68
e 20 87
e 20 88
e 20 100
e 20 107
e 20 130
e 20 153
e 20 164
e 20 182
e 20 187
e 20 193
e 20 194
e 21 22
e 21 26
e 21 40
e 21 42
e 21 45
e 21 51
e 21 52
e 21 53
e 21 55
e 21 66
e 21 69
e 21 89
e 21 99
e 21 111
e 21 114
e 21 131
e 21 132
e 21 135
e 21 136
e 21 138
e 21 142
e 21 145
e 21 156
e 21 159
e 21 171
e 21 173
e 21 180
e 21 182
e 21 196
e 21 197
e 22 30
e 22 49
e 22 52
e 22 53
e 22 66
e 22 67
e 22 90
e 22 95
e 22 107
e 22 108
e 22 119
e 22 127
e 22 128
e 22 129
e 22 135
e 22 149
e 22 167
e 22 169
e 22 177
e 22 179
e 22 180
e 22 184
e 22 188
e 22 194
e 23 28
e 23 36
e 23 43
e 23 50
e 23 51
e 23 52
e 23 58
e 23 93
e 23 96
e 23 97
e 23 101
e 23 105
e 23 106
e 23 117
e 23 119
e 23 151
e 23 158
e 23 166
e 23 167
e 23 168
e 23 187
e 24 30
e 24 35
e 24 39
e 24 41
e 24 43
e 24 47
e 24 56
e 24 57
e 24 68
e 24 80
e 24 98
e 24 115
e 24 121
e 24 136
e 24 167
e 24 168
e 24 172
e 24 196
e 25 36
e 25 56
e 25 58
e 25 72
e 25 78
e 25 79
e 25 90
e 25 91
e 25 106
e 25 142
e 25 149
e 25 160
e 25 175
e 25 200
e 26 31
e 26 47
e 26 51
e 26 54
e 26 70
e 26 71
e 26 89
e 26 96
e 26 99
e 26 101
e 26 106
e 26 112
e 26 122
e 26 130
e 26 140
e 26 142
e 26 144
e 26 145
e 26 150
e 26 151
e 26 154
e 26 158
e 26 164
e 26 166
e 27 29
e 27 34
e 27 61
e 27 72
e 27 93
e 27 96
e 27 98
e 27 100
e 27 112
e 27 113
e 27 115
e 27 132
e 27 145
e 27 147
e 27 149
e 27 150
e 27 157
e 27 160
e 27 170
e 27 171
e 27 181
e 27 195
e 27 199
e 28 31
e 28 42
e 28 43
e 28 66
e 28 67
e 28 78
e 28 84
e 28 112
e 28 120
e 28 129
e 28 139
e 28 142
e 28 146
e 28 147
e 28 169
e 29 44
e 29 45
e 29 55
e 29 72
e 29 75
e 29 86
e 29 89
e 29 119
e 29 121
e 29 126
e 29 127
e 29 139
e 29 151
e 29 153
e 29 159
e 29 166
e 29 176
e 29 178
e 29 194
e 29 198
e 30 33
e 30 63
e 30 65
e 30 70
e 30 73
e 30 83
e 30 89
e 30 92
e 30 110
e 30 130
e 30 132
e 30 159
e 30 164
e 30 173
e 30 189
e 30 196
e 30 200
e 31 47
e 31 77
e 31 100
e 31 102
e 31 105
e 31 110
e 31 118
e 31 135
e 31 142
e 31 149
e 31 159
e 31 161
e 31 168
e 31 176
e 32 41
e 32 43
e 32 44
e 32 50
e 32 51
e 32 52
e 32 53
e 32 64
e 32 77
e 32 85
e 32 86
e 32 87
e 32 90
e 32 92
e 32 107
e 32 108
e 32 109
e 32 172
e 32 173
e 32 178
e 32 184
e 32 185
e 32 193
e 32 194
e 32 196
e 33 36
e 33 44
e 33 47
e 33 54
e 33 60
e 33 70
e 33 82
e 33 85
e 33 87
e 33 94
e 33 98
e 33 101
e 33 116
e 33 117
e 33 119
e 33 134
e 33 137
e 33 140
e 33 157
e 33 162
e 33 183
e 33 184
e 34 41
e 34 54
e 34 56
e 34 72
e 34 74
e 34 83
e 34 86
e 34 93
e 34 124
e 34 132
e 34 139
e 34 148
e 34 169
e 34 181
e 34 188
e 34 193
e 35 37
e 35 55
e 35 60
e 35 67
e 35 73
e 35 79
e 35 83
e 35 98
e 35 101
e 35 103
e 35 109
e 35 112
e 35 113
e 35 115
e 35 141
e 35 148
e 35 149
e 35 156
e 35 161
e 35 169
e 35 180
e 35 182
e 35 192
e 35 195
e 35 199
e 36 45
e 36 50
e 36 55
e 36 63
e 36 75
e 36 90
e 36 91
e 36 117
e 36 119
e 36 136
e 36 146
e 36 156
e 36 161
e 36 168
e 36 171
e 36 184
e 36 187
e 37 41
e 37 42
e 37 64
e 37 83
e 37 84
e 37 88
e 37 89
e 37 90
e 37 110
e 37 126
e 37 128
e 37 133
e 37 139
e 37 141
e 37 147
e 37 154
e 37 166
e 37 177
e 37 189
e 38 53
e 38 64
e 38 66
e 38 73
e 38 75
e 38 86
e 38 89
e 38 90
e 38 96
e 38 107
e 38 110
e 38 118
e 38 119
e 38 124
e 38 125
e 38 127
e 38 128
e 38 130
e 38 132
e 38 171
e 38 173
e 38 174
e 38 191
e 39 44
e 39 45
e 39 60
e 39 66
e 39 72
e 39 75
e 39 88
e 39 93
e 39 96
e 39 98
e 39 105
e 39 109
e 39 115
e 39 116
e 39 143
e 39 147
e 39 155
e 39 163
e 39 164
e 39 178
e 39 190
e 39 200
e 40 44
e 40 50
e 40 58
e 40 59
e 40 66
e 40 69
e 40 75
e 40 99
e 40 121
e 40 131
e 40 143
e 40 155
e 40 157
e 40 160
e 40 163
e 40 175
e 41 46
e 41 49
e 41 64
e 41 68
e 41 71
e 41 75
e 41 81
e 41 83
e 41 98
e 41 100
e 41 106
e 41 132
e 41 137
e 41 140
e 41 145
e 41 152
e 41 159
e 41 166
e 41 169
e 41 185
e 41 190
e 41 191
e 41 192
e 42 53
e 42 56
e 42 57
e 42 59
e 42 64
e 42 68
e 42 81
e 42 88
e 42 93
e 42 98
e 42 112
e 42 125
e 42 132
e 42 151
e 42 181
e 42 188
e 42 190
e 42 192
e 42 200
e 43 63
e 43 77
e 43 89
e 43 95
e 43 96
e 43 98
e 43 107
e 43 108
e 43 118
e 43 119
e 43 124
e 43 126
e 43 133
e 43 136
e 43 146
e 43 147
e 43 150
e 43 152
e 43 156
e 43 167
e 43 189
e 43 196
e 44 57
e 44 61
e 44 65
e 44 67
e 44 76
e 44 78
e 44 84
e 44 89
e 44 112
e 44 121
e 44 130
e 44 155
e 44 163
e 44 168
e 44 170
e 44 184
e 45 52
e 45 58
e 45 59
e 45 68
e 45 69
e 45 78
e 45 86
e 45 92
e 45 102
e 45 107
e 45 122
e 45 147
e 45 170
e 45 187
e 45 198
e 45 200
e 46 59
e 46 84
e 46 130
e 46 131
e 46 133
e 46 136
e 46 151
e 46 178
e 46 189
e 46 190
e 46 193
e 46 200
e 47 58
e 47 64
e 47 82
e 47 106
e 47 124
e 47 125
e 47 137
e 47 139
e 47 141
e 47 144
e 47 158
e 47 172
e 47 175
e 47 197
e 48 66
e 48 74
e 48 92
e 48 126
e 48 137
e 48 150
e 48 166
e 48 181
e 48 187
e 48 189
e 49 55
e 49 82
e 49 113
e 49 123
e 49 125
e 49 130
e 49 155
e 49 169
e 49 190
e 50 75
e 50 100
e 50 110
e 50 116
e 50 120
e 50 126
e 50 141
e 50 144
e 50 159
e 50 160
e 50 166
e 50 175
e 50 180
e 50 189
e 50 191
e 50 198
e 51 68
e 51 78
e 51 79
e 51 94
e 51 105
e 51 106
e 51 117
e 51 142
e 51 148
e 51 151
e 51 173
e 51 182
e 51 184
e 51 185
e 52 53
e 52 57
e 52 59
e 52 61
e 52 73
e 52 75
e 52 80
e 52 95
e 52 114
e 52 121
e 52 133
e 52 135
e 52 144
e 52 154
e 52 159
e 52 169
e 52 180
e 53 58
e 53 64
e 53 75
e 53 79
e 53 95
e 53 103
e 53 130
e 53 139
e 53 154
e 53 158
e 53 162
e 53 165
e 53 175
e 53 177
e 53 192
e 54 59
e 54 66
e 54 68
e 54 74
e 54 83
e 54 90
e 54 92
e 54 93
e 54 120
e 54 127
e 54 130
e 54 141
e 54 182
e 55 62
e 55 63
e 55 65
e 55 94
e 55 95
e 55 123
e 55 133
e 55 185
e 55 190
e 55 194
e 55 195
e 55 196
e 55 198
e 56 93
e 56 95
e 56 98
e 56 100
e 56 103
e 56 107
e 56 108
e 56 110
e 56 111
e 56 188
e 57 81
e 57 87
e 57 90
e 57 106
e 57 111
e 57 119
e 57 126
e 57 137
e 57 139
e 57 166
e 57 181
e 57 183
e 57 184
e 57 186
e 58 60
e 58 67
e 58 81
e 58 93
e 58 95
e 58 109
e 58 137
e 58 140
e 58 143
e 58 167
e 58 168
e 58 177
e 58 188
e 58 193
e 58 199
e 58 200
e 59 66
e 59 80
e 59 128
e 59 132
e 59 143
e 59 156
e 59 167
e 60 67
e 60 69
e 60 71
e 60 80
e 60 89
e 60 90
e 60 102
e 60 114
e 60 119
e 60 133
e 60 136
e 60 137
e 60 148
e 60 149
e 60 159
e 60 191
e 60 195
e 60 200
e 61 66
e 61 69
e 61 78
e 61 80
e 61 82
e 61 109
e 61 113
e 61 122
e 61 131
e 61 135
e 61 149
e 61 166
e 61 177
e 61 179
e 61 192
e 61 195
e 62 66
e 62 68
e 62 95
e 62 106
e 62 108
e 62 112
e 62 113
e 62 118
e 62 142
e 62 149
e 62 163
e 62 166
e 62 167
e 62 176
e 62 195
e 63 78
e 63 82
e 63 93
e 63 99
e 63 106
e 63 109
e 63 138
e 63 149
e 63 153
e 63 159
e 63 160
e 63 161
e 63 194
e 63 196
e 64 66
e 64 69
e 64 70
e 64 74
e 64 78
e 64 83
e 64 107
e 64 147
e 64 149
e 64 174
e 64 176
e 64 200
e 65 67
e 65 76
e 65 91
e 65 96
e 65 102
e 65 110
e 65 114
e 65 118
e 65 121
e 65 123
e 65 124
e 65 127
e 65 138
e 65 151
e 65 153
e 65 159
e 65 177
e 65 198
e 66 100
e 66 103
e 66 127
e 66 129
e 66 142
e 66 145
e 66 154
e 66 163
e 66 173
e 66 186
e 66 187
e 67 84
e 67 88
e 67 90
e 67 96
e 67 100
e 67 108
e 67 122
e 67 124
e 67 162
e 67 165
e 67 179
e 68 117
e 68 173
e 68 176
e 68 179
e 68 187
e 68 195
e 69 72
e 69 74
e 69 91
e 69 97
e 69 117
e 69 124
e 69 129
e 69 136
e 69 137
e 69 142
e 69 149
e 69 162
e 69 179
e 69 189
e 69 192
e 69 194
e 69 198
e 70 71
e 70 86
e 70 88
e 70 108
e 70 109
e 70 121
e 70 125
e 70 129
e 70 142
e 70 155
e 70 156
e 70 164
e 70 165
e 70 168
e 70 178
e 70 179
e 70 183
e 70 188
e 70 196
e 71 81
e 71 82
e 71 100
e 71 111
e 71 113
e 71 115
e 71 130
e 71 131
e 71 133
e 71 136
e 71 141
e 71 149
e 71 150
e 71 155
e 71 161
e 71 162
e 71 167
e 71 172
e 71 185
e 71 195
e 72 84
e 72 87
e 72 90
e 72 91
e 72 96
e 72 110
e 72 121
e 72 132
e 72 137
e 72 169
e 72 170
e 72 179
e 72 190
e 72 191
e 72 198
e 72 199
e 73 75
e 73 83
e 73 98
e 73 113
e 73 116
e 73 125
e 73 134
e 73 173
e 73 192
e 74 77
e 74 79
e 74 81
e 74 86
e 74 92
e 74 108
e 74 110
e 74 111
e 74 117
e 74 121
e 74 141
e 74 152
e 74 158
e 74 162
e 74 165
e 74 168
e 74 174
e 74 175
e 74 176
e 74 181
e 74 190
e 75 86
e 75 93
e 75 118
e 75 135
e 75 137
e 75 138
e 75 142
e 75 143
e 75 180
e 75 184
e 75 192
e 76 81
e 76 83
e 76 84
e 76 87
e 76 88
e 76 100
e 76 109
e 76 120
e 76 123
e 76 142
e 76 146
e 76 147
e 76 150
e 76 157
e 76 163
e 76 169
e 76 191
e 76 193
e 76 194
e 76 198
e 77 79
e 77 93
e 77 98
e 77 101
e 77 109
e 77 123
e 77 132
e 77 135
e 77 141
e 77 143
e 77 168
e 77 172
e 77 173
e 77 179
e 77 188
e 78 89
e 78 95
e 78 101
e 78 104
e 78 115
e 78 121
e 78 131
e 78 152
e 78 157
e 78 184
e 78 198
e 78 199
e 79 82
e 79 84
e 79 88
e 79 91
e 79 92
e 79 120
e 79 127
e 79 130
e 79 147
e 79 151
e 79 169
e 79 183
e 79 200
e 80 95
e 80 103
e 80 105
e 80 106
e 80 113
e 80 116
e 80 122
e 80 126
e 80 131
e 80 135
e 80 140
e 80 148
e 80 152
e 80 159
e 80 165
e 80 176
e 80 178
e 80 195
e 80 197
e 80 198
e 81 96
e 81 100
e 81 101
e 81 110
e 81 123
e 81 125
e 81 138
e 81 140
e 81 148
e 81 155
e 81 178
e 81 179
e 81 195
e 82 87
e 82 92
e 82 98
e 82 103
e 82 105
e 82 106
e 82 110
e 82 115
e 82 120
e 82 134
e 82 150
e 82 151
e 82 152
e 82 164
e 82 179
e 82 180
e 82 188
e 82 196
e 83 84
e 83 104
e 83 115
e 83 127
e 83 135
e 83 151
e 83 161
e 83 175
e 83 184
e 83 186
e 83 188
e 83 195
e 84 94
e 84 96
e 84 99
e 84 109
e 84 141
e 84 147
e 84 148
e 84 150
e 84 155
e 84 159
e 84 176
e 84 190
e 85 87
e 85 112
e 85 122
e 85 125
e 85 126
e 85 132
e 85 147
e 85 156
e 85 158
e 85 175
e 85 180
e 85 183
e 85 190
e 85 191
e 85 197
e 86 91
e 86 96
e 86 99
e 86 100
e 86 115
e 86 128
e 86 135
e 86 139
e 86 145
e 86 152
e 86 166
e 86 194
e 86 195
e 86 198
e 87 89
e 87 93
e 87 95
e 87 96
e 87 104
e 87 109
e 87 112
e 87 116
e 87 134
e 87 149
e 87 154
e 87 156
e 87 176
e 87 179
e 87 193
e 87 195
e 87 197
e 87 200
e 88 102
e 88 105
e 88 123
e 88 129
e 88 153
e 88 159
e 88 169
e 88 174
e 88 178
e 88 184
e 88 187
e 89 91
e 89 95
e 89 104
e 89 144
e 89 153
e 89 179
e 89 180
e 89 199
e 90 93
e 90 97
e 90 103
e 90 111
e 90 112
e 90 119
e 90 129
e 90 130
e 90 132
e 90 143
e 90 160
e 90 172
e 90 177
e 90 190
e 90 195
e 91 94
e 91 97
e 91 115
e 91 138
e 91 141
e 91 164
e 91 172
e 91 179
e 91 182
e 91 199
e 92 101
e 92 106
e 92 113
e 92 117
e 92 126
e 92 162
e 92 163
e 92 164
e 92 174
e 92 187
e 92 188
e 92 190
e 92 191
e 92 195
e 93 108
e 93 134
e 93 138
e 93 142
e 93 147
e 93 155
e 93 161
e 93 179
e 93 181
e 93 183
e 93 184
e 93 189
e 94 95
e 94 98
e 94 109
e 94 113
e 94 121
e 94 128
e 94 153
e 94 165
e 94 182
e 94 190
e 94 197
e 95 106
e 95 108
e 95 109
e 95 112
e 95 115
e 95 127
e 95 135
e 95 162
e 95 183
e 95 185
e 95 188
e 96 105
e 96 108
e 96 114
e 96 125
e 96 126
e 96 130
e 96 135
e 96 145
e 96 177
e 97 109
e 97 120
e 97 125
e 97 132
e 97 147
e 97 160
e 97 166
e 97 178
e 97 180
e 98 103
e 98 105
e 98 115
e 98 116
e 98 122
e 98 125
e 98 149
e 98 157
e 98 163
e 98 170
e 98 188
e 98 192
e 99 104
e 99 105
e 99 108
e 99 115
e 99 118
e 99 121
e 99 142
e 99 145
e 99 153
e 99 157
e 99 163
e 99 190
e 99 195
e 100 101
e 100 109
e 100 117
e 100 125
e 100 140
e 100 155
e 100 161
e 100 178
e 100 179
e 100 185
e 100 188
e 101 111
e 101 122
e 101 149
e 101 189
e 102 104
e 102 121
e 102 122
e 102 138
e 102 147
e 102 158
e 102 162
e 102 171
e 102 183
e 102 184
e 102 185
e 102 200
e 103 113
e 103 116
e 103 120
e 103 123
e 103 124
e 103 128
e 103 141
e 103 142
e 103 145
e 103 150
e 103 169
e 103 192
e 104 117
e 104 130
e 104 132
e 104 161
e 104 183
e 104 184
e 104 187
e 105 106
e 105 121
e 105 147
e 105 152
e 105 156
e 105 161
e 105 168
e 105 173
e 105 186
e 105 191
e 105 196
e 106 108
e 106 139
e 106 151
e 106 154
e 106 187
e 107 120
e 107 124
e 107 126
e 107 136
e 107 153
e 107 156
e 107 181
e 107 191
e 108 109
e 108 117
e 108 118
e 108 142
e 108 147
e 108 153
e 108 174
e 108 185
e 108 189
e 108 194
e 108 200
e 109 111
e 109 112
e 109 120
e 109 131
e 109 139
e 109 141
e 109 149
e 109 151
e 109 170
e 109 198
e 110 130
e 110 144
e 110 146
e 110 151
e 110 174
e 111 119
e 111 121
e 111 138
e 111 144
e 111 145
e 111 151
e 111 185
e 111 193
e 111 198
e 111 200
e 112 120
e 112 130
e 112 139
e 112 152
e 112 172
e 112 181
e 112 189
e 112 196
e 113 127
e 113 148
e 113 173
e 114 119
e 114 126
e 114 130
e 114 144
e 114 163
e 114 169
e 114 181
e 114 196
e 115 117
e 115 120
e 115 122
e 115 134
e 115 141
e 115 146
e 115 149
e 115 151
e 115 155
e 115 156
e 115 172
e 115 176
e 115 183
e 115 184
e 115 191
e 116 126
e 116 137
e 116 160
e 116 161
e 116 169
e 116 173
e 116 190
e 117 124
e 117 131
e 117 134
e 117 140
e 117 150
e 117 157
e 117 184
e 117 192
e 118 131
e 118 135
e 118 137
e 118 152
e 118 164
e 118 171
e 118 186
e 118 193
e 118 197
e 119 142
e 119 145
e 119 146
e 119 151
e 119 157
e 119 158
e 119 183
e 119 184
e 119 192
e 119 197
e 120 134
e 120 140
e 120 149
e 120 152
e 120 190
e 120 197
e 121 133
e 121 164
e 121 167
e 121 173
e 121 179
e 121 184
e 121 187
e 121 196
e 122 123
e 122 125
e 122 130
e 122 140
e 122 143
e 122 144
e 122 155
e 122 162
e 122 199
e 123 143
e 123 151
e 123 158
e 123 166
e 123 170
e 123 179
e 123 187
e 124 130
e 124 132
e 124 137
e 124 172
e 124 198
e 125 131
e 125 135
e 125 141
e 125 149
e 125 175
e 125 189
e 125 195
e 125 197
e 125 200
e 126 127
e 126 132
e 126 142
e 126 147
e 126 154
e 126 163
e 126 183
e 126 186
e 127 135
e 127 140
e 127 156
e 127 159
e 127 160
e 127 166
e 127 174
e 127 184
e 128 140
e 128 149
e 128 163
e 128 164
e 128 175
e 128 188
e 128 195
e 129 137
e 129 139
e 129 143
e 129 149
e 129 163
e 129 170
e 129 187
e 129 200
e 130 131
e 130 144
e 130 150
e 130 152
e 130 161
e 130 162
e 130 164
e 130 172
e 130 189
e 130 200
e 131 135
e 131 162
e 131 172
e 131 178
e 131 179
e 131 180
e 131 187
e 131 189
e 132 134
e 132 135
e 132 143
e 132 151
e 132 163
e 132 167
e 132 171
e 132 182
e 132 192
e 133 141
e 133 145
e 133 176
e 133 190
e 133 198
e 134 156
e 134 157
e 134 166
e 134 169
e 134 183
e 134 185
e 134 200
e 135 140
e 135 144
e 135 146
e 135 150
e 135 151
e 135 155
e 135 166
e 135 168
e 135 170
e 135 177
e 135 197
e 136 140
e 136 150
e 136 153
e 136 154
e 136 157
e 136 165
e 136 170
e 136 175
e 136 184
e 136 200
e 137 141
e 137 153
e 137 186
e 137 194
e 138 141
e 138 143
e 138 145
e 138 148
e 138 152
e 138 154
e 138 167
e 138 176
e 138 179
e 138 183
e 138 194
e 139 146
e 139 168
e 139 186
e 139 192
e 140 152
e 140 157
e 140 172
e 140 174
e 140 175
e 140 182
e 140 194
e 141 148
e 141 149
e 141 167
e 141 179
e 141 196
e 142 150
e 142 152
e 142 164
e 142 169
e 142 198
e 143 145
e 143 153
e 143 170
e 143 174
e 143 176
e 143 182
e 143 183
e 143 190
e 143 193
e 143 196
e 144 147
e 144 160
e 144 165
e 144 180
e 144 186
e 144 189
e 144 197
e 145 159
e 145 186
e 145 199
e 146 162
e 146 196
e 147 149
e 147 162
e 147 170
e 147 176
e 147 186
e 148 159
e 148 173
e 148 182
e 148 196
e 149 151
e 149 153
e 149 172
e 149 173
e 149 180
e 149 194
e 150 164
e 150 165
e 150 180
e 150 183
e 150 189
e 150 196
e 150 197
e 151 169
e 151 176
e 151 181
e 151 196
e 152 158
e 152 194
e 152 195
e 152 196
e 153 157
e 153 171
e 153 173
e 153 180
e 153 181
e 153 189
e 154 188
e 155 160
e 155 162
e 155 172
e 156 175
e 157 167
e 157 168
e 157 182
e 157 190
e 158 172
e 158 174
e 158 182
e 159 170
e 159 174
e 159 177
e 159 180
e 159 184
e 159 188
e 159 192
e 160 180
e 160 181
e 160 197
e 161 162
e 161 173
e 161 178
e 162 178
e 162 183
e 162 192
e 162 198
e 162 199
e 163 177
e 163 178
e 163 181
e 163 183
e 163 194
e 163 197
e 164 165
e 164 168
e 164 177
e 165 174
e 165 179
e 165 180
e 165 184
e 165 195
e 166 168
e 166 181
e 167 174
e 167 177
e 167 180
e 167 185
e 167 193
e 167 196
e 168 173
e 168 183
e 168 189
e 168 194
e 168 195
e 169 170
e 169 177
e 169 183
e 169 198
e 170 192
e 170 194
e 171 180
e 171 189
e 171 190
e 171 198
e 172 179
e 172 180
e 172 181
e 172 185
e 172 191
e 172 193
e 172 196
e 172 197
e 173 174
e 173 181
e 173 192
e 173 199
e 174 182
e 174 185
e 175 186
e 175 187
e 176 182
e 177 182
e 177 194
e 178 181
e 178 192
e 180 184
e 180 188
e 180 190
e 180 193
e 184 186
e 184 189
e 186 190
e 186 194
e 186 199
e 187 188
e 187 198
e 187 200
e 188 191
e 189 199
e 190 194
e 190 196
e 193 196
e 193 200
e 195 198
